\ENCODING=ISO-8859-1
\Problem name: Default

Minimize
 obj1: Cmax
Subject To
 c1:   x#4#0 - x#3#0 >= 7.31
 c2:   - x#4#0 + x#7#0 >= 4.52
 c3:   - x#7#0 + x#8#0 >= 2.62
 c4:   - x#8#0 + x#9#0 >= 6.33
 c5:   - x#9#0 + x#0#0 >= 8.18
 c6:   x#9#1 - x#8#1 >= 6.33
 c7:   - x#9#1 + x#0#1 >= 5.87
 c8:   - x#0#1 + x#1#1 >= 6.95
 c9:   - x#1#1 + x#5#1 >= 1.97
 c10:  x#8#2 - x#7#2 >= 6.83
 c11:  - x#8#2 + x#9#2 >= 6.33
 c12:  - x#9#2 + x#0#2 >= 5.87
 c13:  x#4#3 - x#3#3 >= 7.31
 c14:  - x#4#3 + x#7#3 >= 4.52
 c15:  x#0#4 - x#9#4 >= 5.44
 c16:  - x#0#4 + x#1#4 >= 3.05
 c17:  x#5#5 - x#2#5 >= 7.05
 c18:  x#6#6 - x#5#6 >= 0.68
 c19:  - x#6#6 + x#7#6 >= 5.77
 c20:  - x#7#6 + x#8#6 >= 7.04
 c21:  x#6#7 - x#5#7 >= 5.55
 c22:  x#7#8 - x#6#8 >= 6.86
 c23:  - x#7#8 + x#8#8 >= 7.04
 c24:  - x#8#8 + x#1#8 >= 4.05
 c25:  - x#1#8 + x#2#8 >= 7.87
 c26:  x#5#9 - x#2#9 >= 6.68
 c27:  - x#5#9 + x#3#9 >= 8.31
 c28:  - x#3#9 + x#4#9 >= 7.31
 c29:  161.28 l#0#0#0 <= 153.97
 c30:  x#0#0 - x#0#1 + 161.28 l#0#0#1 <= 150.34
 c31:  x#0#0 - x#0#2 + 161.28 l#0#0#2 <= 150.34
 c32:  x#0#0 - x#0#4 + 161.28 l#0#0#4 <= 151.93
 c33:  - x#0#0 + x#0#1 + 161.28 l#0#1#0 <= 148.22
 c34:  161.28 l#0#1#1 <= 154.33
 c35:  x#0#1 - x#0#2 + 161.28 l#0#1#2 <= 154.32
 c36:  x#0#1 - x#0#4 + 161.28 l#0#1#4 <= 148.22
 c37:  - x#0#0 + x#0#2 + 161.28 l#0#2#0 <= 156.84
 c38:  - x#0#1 + x#0#2 + 161.28 l#0#2#1 <= 153.2
 c39:  161.28 l#0#2#2 <= 160.27
 c40:  x#0#2 - x#0#4 + 161.28 l#0#2#4 <= 156.84
 c41:  - x#0#0 + x#0#4 + 161.28 l#0#4#0 <= 152.12
 c42:  - x#0#1 + x#0#4 + 161.28 l#0#4#1 <= 158.22
 c43:  - x#0#2 + x#0#4 + 161.28 l#0#4#2 <= 158.22
 c44:  161.28 l#0#4#4 <= 158.23
 c45:  161.28 l#1#1#1 <= 159.31
 c46:  x#1#1 - x#1#4 + 161.28 l#1#1#4 <= 151.99
 c47:  x#1#1 - x#1#8 + 161.28 l#1#1#8 <= 154.47
 c48:  - x#1#1 + x#1#4 + 161.28 l#1#4#1 <= 151.99
 c49:  161.28 l#1#4#4 <= 159.31
 c50:  x#1#4 - x#1#8 + 161.28 l#1#4#8 <= 154.47
 c51:  - x#1#1 + x#1#8 + 161.28 l#1#8#1 <= 145
 c52:  - x#1#4 + x#1#8 + 161.28 l#1#8#4 <= 145
 c53:  161.28 l#1#8#8 <= 153.41
 c54:  161.28 l#2#5#5 <= 154.23
 c55:  x#2#5 - x#2#8 + 161.28 l#2#5#8 <= 146.73
 c56:  x#2#5 - x#2#9 + 161.28 l#2#5#9 <= 148.71
 c57:  - x#2#5 + x#2#8 + 161.28 l#2#8#5 <= 159.08
 c58:  161.28 l#2#8#8 <= 160.6
 c59:  x#2#8 - x#2#9 + 161.28 l#2#8#9 <= 154.14
 c60:  - x#2#5 + x#2#9 + 161.28 l#2#9#5 <= 147.1
 c61:  - x#2#8 + x#2#9 + 161.28 l#2#9#8 <= 147.1
 c62:  161.28 l#2#9#9 <= 154.6
 c63:  161.28 l#3#0#0 <= 153.97
 c64:  x#3#0 - x#3#3 + 161.28 l#3#0#3 <= 153.82
 c65:  x#3#0 - x#3#9 + 161.28 l#3#0#9 <= 153.82
 c66:  - x#3#0 + x#3#3 + 161.28 l#3#3#0 <= 153.82
 c67:  161.28 l#3#3#3 <= 153.97
 c68:  x#3#3 - x#3#9 + 161.28 l#3#3#9 <= 153.82
 c69:  - x#3#0 + x#3#9 + 161.28 l#3#9#0 <= 153.82
 c70:  - x#3#3 + x#3#9 + 161.28 l#3#9#3 <= 153.82
 c71:  161.28 l#3#9#9 <= 153.97
 c72:  161.28 l#4#0#0 <= 156.76
 c73:  x#4#0 - x#4#3 + 161.28 l#4#0#3 <= 154.53
 c74:  x#4#0 - x#4#9 + 161.28 l#4#0#9 <= 154.53
 c75:  - x#4#0 + x#4#3 + 161.28 l#4#3#0 <= 154.53
 c76:  161.28 l#4#3#3 <= 156.76
 c77:  x#4#3 - x#4#9 + 161.28 l#4#3#9 <= 154.53
 c78:  - x#4#0 + x#4#9 + 161.28 l#4#9#0 <= 157.94
 c79:  - x#4#3 + x#4#9 + 161.28 l#4#9#3 <= 157.94
 c80:  161.28 l#4#9#9 <= 160.39
 c81:  161.28 l#5#1#1 <= 161.26
 c82:  x#5#1 - x#5#5 + 161.28 l#5#1#5 <= 152.54
 c83:  x#5#1 - x#5#6 + 161.28 l#5#1#6 <= 156.74
 c84:  x#5#1 - x#5#7 + 161.28 l#5#1#7 <= 152.54
 c85:  x#5#1 - x#5#9 + 161.28 l#5#1#9 <= 152.54
 c86:  - x#5#1 + x#5#5 + 161.28 l#5#5#1 <= 151.08
 c87:  161.28 l#5#5#5 <= 154.84
 c88:  x#5#5 - x#5#6 + 161.28 l#5#5#6 <= 153.64
 c89:  x#5#5 - x#5#7 + 161.28 l#5#5#7 <= 150.49
 c90:  x#5#5 - x#5#9 + 161.28 l#5#5#9 <= 150.49
 c91:  - x#5#1 + x#5#6 + 161.28 l#5#6#1 <= 154.72
 c92:  - x#5#5 + x#5#6 + 161.28 l#5#6#5 <= 153.64
 c93:  161.28 l#5#6#6 <= 160.6
 c94:  x#5#6 - x#5#7 + 161.28 l#5#6#7 <= 153.64
 c95:  x#5#6 - x#5#9 + 161.28 l#5#6#9 <= 153.64
 c96:  - x#5#1 + x#5#7 + 161.28 l#5#7#1 <= 149.85
 c97:  - x#5#5 + x#5#7 + 161.28 l#5#7#5 <= 148.77
 c98:  - x#5#6 + x#5#7 + 161.28 l#5#7#6 <= 155.13
 c99:  161.28 l#5#7#7 <= 155.73
 c100: x#5#7 - x#5#9 + 161.28 l#5#7#9 <= 148.77
 c101: - x#5#1 + x#5#9 + 161.28 l#5#9#1 <= 147.87
 c102: - x#5#5 + x#5#9 + 161.28 l#5#9#5 <= 144.6
 c103: - x#5#6 + x#5#9 + 161.28 l#5#9#6 <= 151.88
 c104: - x#5#7 + x#5#9 + 161.28 l#5#9#7 <= 144.6
 c105: 161.28 l#5#9#9 <= 152.97
 c106: 161.28 l#6#6#6 <= 155.51
 c107: x#6#6 - x#6#7 + 161.28 l#6#6#7 <= 153.19
 c108: x#6#6 - x#6#8 + 161.28 l#6#6#8 <= 149
 c109: - x#6#6 + x#6#7 + 161.28 l#6#7#6 <= 158.3
 c110: 161.28 l#6#7#7 <= 159.96
 c111: x#6#7 - x#6#8 + 161.28 l#6#7#8 <= 156.6
 c112: - x#6#6 + x#6#8 + 161.28 l#6#8#6 <= 152.1
 c113: - x#6#7 + x#6#8 + 161.28 l#6#8#7 <= 152.1
 c114: 161.28 l#6#8#8 <= 154.42
 c115: 161.28 l#7#0#0 <= 158.66
 c116: x#7#0 - x#7#2 + 161.28 l#7#0#2 <= 151.15
 c117: x#7#0 - x#7#3 + 161.28 l#7#0#3 <= 152.64
 c118: x#7#0 - x#7#6 + 161.28 l#7#0#6 <= 153.81
 c119: x#7#0 - x#7#8 + 161.28 l#7#0#8 <= 153.81
 c120: - x#7#0 + x#7#2 + 161.28 l#7#2#0 <= 148.43
 c121: 161.28 l#7#2#2 <= 154.45
 c122: x#7#2 - x#7#3 + 161.28 l#7#2#3 <= 148.43
 c123: x#7#2 - x#7#6 + 161.28 l#7#2#6 <= 149.6
 c124: x#7#2 - x#7#8 + 161.28 l#7#2#8 <= 149.6
 c125: - x#7#0 + x#7#3 + 161.28 l#7#3#0 <= 161.28
 c126: - x#7#2 + x#7#3 + 161.28 l#7#3#2 <= 153.15
 c127: 161.28 l#7#3#3 <= 161.28
 c128: x#7#3 - x#7#6 + 161.28 l#7#3#6 <= 160.69
 c129: x#7#3 - x#7#8 + 161.28 l#7#3#8 <= 160.69
 c130: - x#7#0 + x#7#6 + 161.28 l#7#6#0 <= 148.22
 c131: - x#7#2 + x#7#6 + 161.28 l#7#6#2 <= 146.73
 c132: - x#7#3 + x#7#6 + 161.28 l#7#6#3 <= 148.22
 c133: 161.28 l#7#6#6 <= 154.24
 c134: x#7#6 - x#7#8 + 161.28 l#7#6#8 <= 149.39
 c135: - x#7#0 + x#7#8 + 161.28 l#7#8#0 <= 148.22
 c136: - x#7#2 + x#7#8 + 161.28 l#7#8#2 <= 146.73
 c137: - x#7#3 + x#7#8 + 161.28 l#7#8#3 <= 148.22
 c138: - x#7#6 + x#7#8 + 161.28 l#7#8#6 <= 149.39
 c139: 161.28 l#7#8#8 <= 154.24
 c140: 161.28 l#8#0#0 <= 154.95
 c141: x#8#0 - x#8#1 + 161.28 l#8#0#1 <= 154.18
 c142: x#8#0 - x#8#2 + 161.28 l#8#0#2 <= 154.18
 c143: x#8#0 - x#8#6 + 161.28 l#8#0#6 <= 154.18
 c144: x#8#0 - x#8#8 + 161.28 l#8#0#8 <= 154.18
 c145: - x#8#0 + x#8#1 + 161.28 l#8#1#0 <= 154.18
 c146: 161.28 l#8#1#1 <= 154.95
 c147: x#8#1 - x#8#2 + 161.28 l#8#1#2 <= 154.18
 c148: x#8#1 - x#8#6 + 161.28 l#8#1#6 <= 154.18
 c149: x#8#1 - x#8#8 + 161.28 l#8#1#8 <= 154.18
 c150: - x#8#0 + x#8#2 + 161.28 l#8#2#0 <= 154.18
 c151: - x#8#1 + x#8#2 + 161.28 l#8#2#1 <= 154.18
 c152: 161.28 l#8#2#2 <= 154.95
 c153: x#8#2 - x#8#6 + 161.28 l#8#2#6 <= 154.18
 c154: x#8#2 - x#8#8 + 161.28 l#8#2#8 <= 154.18
 c155: - x#8#0 + x#8#6 + 161.28 l#8#6#0 <= 161.28
 c156: - x#8#1 + x#8#6 + 161.28 l#8#6#1 <= 161.28
 c157: - x#8#2 + x#8#6 + 161.28 l#8#6#2 <= 161.28
 c158: 161.28 l#8#6#6 <= 161.28
 c159: x#8#6 - x#8#8 + 161.28 l#8#6#8 <= 161.28
 c160: - x#8#0 + x#8#8 + 161.28 l#8#8#0 <= 152.66
 c161: - x#8#1 + x#8#8 + 161.28 l#8#8#1 <= 152.66
 c162: - x#8#2 + x#8#8 + 161.28 l#8#8#2 <= 152.66
 c163: - x#8#6 + x#8#8 + 161.28 l#8#8#6 <= 152.66
 c164: 161.28 l#8#8#8 <= 157.23
 c165: 161.28 l#9#0#0 <= 153.1
 c166: x#9#0 - x#9#1 + 161.28 l#9#0#1 <= 145.83
 c167: x#9#0 - x#9#2 + 161.28 l#9#0#2 <= 145.83
 c168: x#9#0 - x#9#4 + 161.28 l#9#0#4 <= 144.22
 c169: - x#9#0 + x#9#1 + 161.28 l#9#1#0 <= 155.1
 c170: 161.28 l#9#1#1 <= 155.41
 c171: x#9#1 - x#9#2 + 161.28 l#9#1#2 <= 155.1
 c172: x#9#1 - x#9#4 + 161.28 l#9#1#4 <= 153.24
 c173: - x#9#0 + x#9#2 + 161.28 l#9#2#0 <= 155.1
 c174: - x#9#1 + x#9#2 + 161.28 l#9#2#1 <= 155.1
 c175: 161.28 l#9#2#2 <= 155.41
 c176: x#9#2 - x#9#4 + 161.28 l#9#2#4 <= 153.24
 c177: - x#9#0 + x#9#4 + 161.28 l#9#4#0 <= 148.57
 c178: - x#9#1 + x#9#4 + 161.28 l#9#4#1 <= 148.57
 c179: - x#9#2 + x#9#4 + 161.28 l#9#4#2 <= 148.57
 c180: 161.28 l#9#4#4 <= 155.84
 c181: - x#0#0 - 161.28 l#0#0#0 - 161.28 l#0#1#0 - 161.28 l#0#2#0
       - 161.28 l#0#4#0 <= -2.04
 c182: - x#0#1 - 161.28 l#0#0#1 - 161.28 l#0#1#1 - 161.28 l#0#2#1
       - 161.28 l#0#4#1 <= -3.63
 c183: - x#0#2 - 161.28 l#0#0#2 - 161.28 l#0#1#2 - 161.28 l#0#2#2
       - 161.28 l#0#4#2 <= -3.63
 c184: - x#0#4 - 161.28 l#0#0#4 - 161.28 l#0#1#4 - 161.28 l#0#2#4
       - 161.28 l#0#4#4 <= -2.04
 c185: - x#1#1 - 161.28 l#1#1#1 - 161.28 l#1#4#1 - 161.28 l#1#8#1 <= -8.84
 c186: - x#1#4 - 161.28 l#1#1#4 - 161.28 l#1#4#4 - 161.28 l#1#8#4 <= -8.84
 c187: - x#1#8 - 161.28 l#1#1#8 - 161.28 l#1#4#8 - 161.28 l#1#8#8 <= -4.32
 c188: - x#2#5 - 161.28 l#2#5#5 - 161.28 l#2#8#5 - 161.28 l#2#9#5 <= -6.77
 c189: - x#2#8 - 161.28 l#2#5#8 - 161.28 l#2#8#8 - 161.28 l#2#9#8 <= -6.77
 c190: - x#2#9 - 161.28 l#2#5#9 - 161.28 l#2#8#9 - 161.28 l#2#9#9 <= -8.26
 c191: - x#3#0 - 161.28 l#3#0#0 - 161.28 l#3#3#0 - 161.28 l#3#9#0 <= -0.15
 c192: - x#3#3 - 161.28 l#3#0#3 - 161.28 l#3#3#3 - 161.28 l#3#9#3 <= -0.15
 c193: - x#3#9 - 161.28 l#3#0#9 - 161.28 l#3#3#9 - 161.28 l#3#9#9 <= -0.15
 c194: - x#4#0 - 161.28 l#4#0#0 - 161.28 l#4#3#0 - 161.28 l#4#9#0 <= -2.23
 c195: - x#4#3 - 161.28 l#4#0#3 - 161.28 l#4#3#3 - 161.28 l#4#9#3 <= -2.23
 c196: - x#4#9 - 161.28 l#4#0#9 - 161.28 l#4#3#9 - 161.28 l#4#9#9 <= -2.23
 c197: - x#5#1 - 161.28 l#5#1#1 - 161.28 l#5#5#1 - 161.28 l#5#6#1
       - 161.28 l#5#7#1 - 161.28 l#5#9#1 <= -1.42
 c198: - x#5#5 - 161.28 l#5#1#5 - 161.28 l#5#5#5 - 161.28 l#5#6#5
       - 161.28 l#5#7#5 - 161.28 l#5#9#5 <= -6.09
 c199: - x#5#6 - 161.28 l#5#1#6 - 161.28 l#5#5#6 - 161.28 l#5#6#6
       - 161.28 l#5#7#6 - 161.28 l#5#9#6 <= -0.92
 c200: - x#5#7 - 161.28 l#5#1#7 - 161.28 l#5#5#7 - 161.28 l#5#6#7
       - 161.28 l#5#7#7 - 161.28 l#5#9#7 <= -6.09
 c201: - x#5#9 - 161.28 l#5#1#9 - 161.28 l#5#5#9 - 161.28 l#5#6#9
       - 161.28 l#5#7#9 - 161.28 l#5#9#9 <= -6.09
 c202: - x#6#6 - 161.28 l#6#6#6 - 161.28 l#6#7#6 - 161.28 l#6#8#6 <= -2.28
 c203: - x#6#7 - 161.28 l#6#6#7 - 161.28 l#6#7#7 - 161.28 l#6#8#7 <= -2.28
 c204: - x#6#8 - 161.28 l#6#6#8 - 161.28 l#6#7#8 - 161.28 l#6#8#8 <= 0
 c205: - x#7#0 - 161.28 l#7#0#0 - 161.28 l#7#2#0 - 161.28 l#7#3#0
       - 161.28 l#7#6#0 - 161.28 l#7#8#0 <= -7.03
 c206: - x#7#2 - 161.28 l#7#0#2 - 161.28 l#7#2#2 - 161.28 l#7#3#2
       - 161.28 l#7#6#2 - 161.28 l#7#8#2 <= -7.38
 c207: - x#7#3 - 161.28 l#7#0#3 - 161.28 l#7#2#3 - 161.28 l#7#3#3
       - 161.28 l#7#6#3 - 161.28 l#7#8#3 <= -7.03
 c208: - x#7#6 - 161.28 l#7#0#6 - 161.28 l#7#2#6 - 161.28 l#7#3#6
       - 161.28 l#7#6#6 - 161.28 l#7#8#6 <= -8.9
 c209: - x#7#8 - 161.28 l#7#0#8 - 161.28 l#7#2#8 - 161.28 l#7#3#8
       - 161.28 l#7#6#8 - 161.28 l#7#8#8 <= -8.9
 c210: - x#8#0 - 161.28 l#8#0#0 - 161.28 l#8#1#0 - 161.28 l#8#2#0
       - 161.28 l#8#6#0 - 161.28 l#8#8#0 <= -4.61
 c211: - x#8#1 - 161.28 l#8#0#1 - 161.28 l#8#1#1 - 161.28 l#8#2#1
       - 161.28 l#8#6#1 - 161.28 l#8#8#1 <= -4.61
 c212: - x#8#2 - 161.28 l#8#0#2 - 161.28 l#8#1#2 - 161.28 l#8#2#2
       - 161.28 l#8#6#2 - 161.28 l#8#8#2 <= -4.61
 c213: - x#8#6 - 161.28 l#8#0#6 - 161.28 l#8#1#6 - 161.28 l#8#2#6
       - 161.28 l#8#6#6 - 161.28 l#8#8#6 <= -4.61
 c214: - x#8#8 - 161.28 l#8#0#8 - 161.28 l#8#1#8 - 161.28 l#8#2#8
       - 161.28 l#8#6#8 - 161.28 l#8#8#8 <= -4.61
 c215: - x#9#0 - 161.28 l#9#0#0 - 161.28 l#9#1#0 - 161.28 l#9#2#0
       - 161.28 l#9#4#0 <= -6.35
 c216: - x#9#1 - 161.28 l#9#0#1 - 161.28 l#9#1#1 - 161.28 l#9#2#1
       - 161.28 l#9#4#1 <= -6.35
 c217: - x#9#2 - 161.28 l#9#0#2 - 161.28 l#9#1#2 - 161.28 l#9#2#2
       - 161.28 l#9#4#2 <= -6.35
 c218: - x#9#4 - 161.28 l#9#0#4 - 161.28 l#9#1#4 - 161.28 l#9#2#4
       - 161.28 l#9#4#4 <= -1.7
 c219: Cmax - x#0#0 >= 7.31
 c220: Cmax - x#5#1 >= 0.02
 c221: Cmax - x#0#2 >= 1.01
 c222: Cmax - x#7#3 >= 0
 c223: Cmax - x#1#4 >= 1.97
 c224: Cmax - x#5#5 >= 6.44
 c225: Cmax - x#8#6 >= 0
 c226: Cmax - x#6#7 >= 1.32
 c227: Cmax - x#2#8 >= 0.68
 c228: Cmax - x#4#9 >= 0.89
 c229: x#0#0 >= 0
 c230: x#0#1 >= 0
 c231: x#0#2 >= 0
 c232: x#0#3 >= 0
 c233: x#0#4 >= 0
 c234: x#0#5 >= 0
 c235: x#0#6 >= 0
 c236: x#0#7 >= 0
 c237: x#0#8 >= 0
 c238: x#0#9 >= 0
 c239: x#1#0 >= 0
 c240: x#1#1 >= 0
 c241: x#1#2 >= 0
 c242: x#1#3 >= 0
 c243: x#1#4 >= 0
 c244: x#1#5 >= 0
 c245: x#1#6 >= 0
 c246: x#1#7 >= 0
 c247: x#1#8 >= 0
 c248: x#1#9 >= 0
 c249: x#2#0 >= 0
 c250: x#2#1 >= 0
 c251: x#2#2 >= 0
 c252: x#2#3 >= 0
 c253: x#2#4 >= 0
 c254: x#2#5 >= 0
 c255: x#2#6 >= 0
 c256: x#2#7 >= 0
 c257: x#2#8 >= 0
 c258: x#2#9 >= 0
 c259: x#3#0 >= 0
 c260: x#3#1 >= 0
 c261: x#3#2 >= 0
 c262: x#3#3 >= 0
 c263: x#3#4 >= 0
 c264: x#3#5 >= 0
 c265: x#3#6 >= 0
 c266: x#3#7 >= 0
 c267: x#3#8 >= 0
 c268: x#3#9 >= 0
 c269: x#4#0 >= 0
 c270: x#4#1 >= 0
 c271: x#4#2 >= 0
 c272: x#4#3 >= 0
 c273: x#4#4 >= 0
 c274: x#4#5 >= 0
 c275: x#4#6 >= 0
 c276: x#4#7 >= 0
 c277: x#4#8 >= 0
 c278: x#4#9 >= 0
 c279: x#5#0 >= 0
 c280: x#5#1 >= 0
 c281: x#5#2 >= 0
 c282: x#5#3 >= 0
 c283: x#5#4 >= 0
 c284: x#5#5 >= 0
 c285: x#5#6 >= 0
 c286: x#5#7 >= 0
 c287: x#5#8 >= 0
 c288: x#5#9 >= 0
 c289: x#6#0 >= 0
 c290: x#6#1 >= 0
 c291: x#6#2 >= 0
 c292: x#6#3 >= 0
 c293: x#6#4 >= 0
 c294: x#6#5 >= 0
 c295: x#6#6 >= 0
 c296: x#6#7 >= 0
 c297: x#6#8 >= 0
 c298: x#6#9 >= 0
 c299: x#7#0 >= 0
 c300: x#7#1 >= 0
 c301: x#7#2 >= 0
 c302: x#7#3 >= 0
 c303: x#7#4 >= 0
 c304: x#7#5 >= 0
 c305: x#7#6 >= 0
 c306: x#7#7 >= 0
 c307: x#7#8 >= 0
 c308: x#7#9 >= 0
 c309: x#8#0 >= 0
 c310: x#8#1 >= 0
 c311: x#8#2 >= 0
 c312: x#8#3 >= 0
 c313: x#8#4 >= 0
 c314: x#8#5 >= 0
 c315: x#8#6 >= 0
 c316: x#8#7 >= 0
 c317: x#8#8 >= 0
 c318: x#8#9 >= 0
 c319: x#9#0 >= 0
 c320: x#9#1 >= 0
 c321: x#9#2 >= 0
 c322: x#9#3 >= 0
 c323: x#9#4 >= 0
 c324: x#9#5 >= 0
 c325: x#9#6 >= 0
 c326: x#9#7 >= 0
 c327: x#9#8 >= 0
 c328: x#9#9 >= 0
 c329: l#0#0#1 + l#0#0#2 + l#0#0#4 + l#0#1#0 + l#0#1#2 + l#0#1#4 + l#0#2#0
       + l#0#2#1 + l#0#2#4 + l#0#4#0 + l#0#4#1 + l#0#4#2 <= 3
 c330: l#1#1#4 + l#1#1#8 + l#1#4#1 + l#1#4#8 + l#1#8#1 + l#1#8#4 <= 2
 c331: l#2#5#8 + l#2#5#9 + l#2#8#5 + l#2#8#9 + l#2#9#5 + l#2#9#8 <= 2
 c332: l#3#0#3 + l#3#0#9 + l#3#3#0 + l#3#3#9 + l#3#9#0 + l#3#9#3 <= 2
 c333: l#4#0#3 + l#4#0#9 + l#4#3#0 + l#4#3#9 + l#4#9#0 + l#4#9#3 <= 2
 c334: l#5#1#5 + l#5#1#6 + l#5#1#7 + l#5#1#9 + l#5#5#1 + l#5#5#6 + l#5#5#7
       + l#5#5#9 + l#5#6#1 + l#5#6#5 + l#5#6#7 + l#5#6#9 + l#5#7#1 + l#5#7#5
       + l#5#7#6 + l#5#7#9 + l#5#9#1 + l#5#9#5 + l#5#9#6 + l#5#9#7 <= 4
 c335: l#6#6#7 + l#6#6#8 + l#6#7#6 + l#6#7#8 + l#6#8#6 + l#6#8#7 <= 2
 c336: l#7#0#2 + l#7#0#3 + l#7#0#6 + l#7#0#8 + l#7#2#0 + l#7#2#3 + l#7#2#6
       + l#7#2#8 + l#7#3#0 + l#7#3#2 + l#7#3#6 + l#7#3#8 + l#7#6#0 + l#7#6#2
       + l#7#6#3 + l#7#6#8 + l#7#8#0 + l#7#8#2 + l#7#8#3 + l#7#8#6 <= 4
 c337: l#8#0#1 + l#8#0#2 + l#8#0#6 + l#8#0#8 + l#8#1#0 + l#8#1#2 + l#8#1#6
       + l#8#1#8 + l#8#2#0 + l#8#2#1 + l#8#2#6 + l#8#2#8 + l#8#6#0 + l#8#6#1
       + l#8#6#2 + l#8#6#8 + l#8#8#0 + l#8#8#1 + l#8#8#2 + l#8#8#6 <= 4
 c338: l#9#0#1 + l#9#0#2 + l#9#0#4 + l#9#1#0 + l#9#1#2 + l#9#1#4 + l#9#2#0
       + l#9#2#1 + l#9#2#4 + l#9#4#0 + l#9#4#1 + l#9#4#2 <= 3
 c339: l#0#0#1 + l#0#0#2 + l#0#0#4 + l#0#1#0 + l#0#1#2 + l#0#1#4 + l#0#2#0
       + l#0#2#1 + l#0#2#4 + l#0#4#0 + l#0#4#1 + l#0#4#2 >= 3
 c340: l#1#1#4 + l#1#1#8 + l#1#4#1 + l#1#4#8 + l#1#8#1 + l#1#8#4 >= 2
 c341: l#2#5#8 + l#2#5#9 + l#2#8#5 + l#2#8#9 + l#2#9#5 + l#2#9#8 >= 2
 c342: l#3#0#3 + l#3#0#9 + l#3#3#0 + l#3#3#9 + l#3#9#0 + l#3#9#3 >= 2
 c343: l#4#0#3 + l#4#0#9 + l#4#3#0 + l#4#3#9 + l#4#9#0 + l#4#9#3 >= 2
 c344: l#5#1#5 + l#5#1#6 + l#5#1#7 + l#5#1#9 + l#5#5#1 + l#5#5#6 + l#5#5#7
       + l#5#5#9 + l#5#6#1 + l#5#6#5 + l#5#6#7 + l#5#6#9 + l#5#7#1 + l#5#7#5
       + l#5#7#6 + l#5#7#9 + l#5#9#1 + l#5#9#5 + l#5#9#6 + l#5#9#7 >= 4
 c345: l#6#6#7 + l#6#6#8 + l#6#7#6 + l#6#7#8 + l#6#8#6 + l#6#8#7 >= 2
 c346: l#7#0#2 + l#7#0#3 + l#7#0#6 + l#7#0#8 + l#7#2#0 + l#7#2#3 + l#7#2#6
       + l#7#2#8 + l#7#3#0 + l#7#3#2 + l#7#3#6 + l#7#3#8 + l#7#6#0 + l#7#6#2
       + l#7#6#3 + l#7#6#8 + l#7#8#0 + l#7#8#2 + l#7#8#3 + l#7#8#6 >= 4
 c347: l#8#0#1 + l#8#0#2 + l#8#0#6 + l#8#0#8 + l#8#1#0 + l#8#1#2 + l#8#1#6
       + l#8#1#8 + l#8#2#0 + l#8#2#1 + l#8#2#6 + l#8#2#8 + l#8#6#0 + l#8#6#1
       + l#8#6#2 + l#8#6#8 + l#8#8#0 + l#8#8#1 + l#8#8#2 + l#8#8#6 >= 4
 c348: l#9#0#1 + l#9#0#2 + l#9#0#4 + l#9#1#0 + l#9#1#2 + l#9#1#4 + l#9#2#0
       + l#9#2#1 + l#9#2#4 + l#9#4#0 + l#9#4#1 + l#9#4#2 >= 3
 c349: l#0#0#0 + l#0#1#0 + l#0#2#0 + l#0#4#0 <= 1
 c350: l#0#0#1 + l#0#1#1 + l#0#2#1 + l#0#4#1 <= 1
 c351: l#0#0#2 + l#0#1#2 + l#0#2#2 + l#0#4#2 <= 1
 c352: l#0#0#4 + l#0#1#4 + l#0#2#4 + l#0#4#4 <= 1
 c353: l#1#1#1 + l#1#4#1 + l#1#8#1 <= 1
 c354: l#1#1#4 + l#1#4#4 + l#1#8#4 <= 1
 c355: l#1#1#8 + l#1#4#8 + l#1#8#8 <= 1
 c356: l#2#5#5 + l#2#8#5 + l#2#9#5 <= 1
 c357: l#2#5#8 + l#2#8#8 + l#2#9#8 <= 1
 c358: l#2#5#9 + l#2#8#9 + l#2#9#9 <= 1
 c359: l#3#0#0 + l#3#3#0 + l#3#9#0 <= 1
 c360: l#3#0#3 + l#3#3#3 + l#3#9#3 <= 1
 c361: l#3#0#9 + l#3#3#9 + l#3#9#9 <= 1
 c362: l#4#0#0 + l#4#3#0 + l#4#9#0 <= 1
 c363: l#4#0#3 + l#4#3#3 + l#4#9#3 <= 1
 c364: l#4#0#9 + l#4#3#9 + l#4#9#9 <= 1
 c365: l#5#1#1 + l#5#5#1 + l#5#6#1 + l#5#7#1 + l#5#9#1 <= 1
 c366: l#5#1#5 + l#5#5#5 + l#5#6#5 + l#5#7#5 + l#5#9#5 <= 1
 c367: l#5#1#6 + l#5#5#6 + l#5#6#6 + l#5#7#6 + l#5#9#6 <= 1
 c368: l#5#1#7 + l#5#5#7 + l#5#6#7 + l#5#7#7 + l#5#9#7 <= 1
 c369: l#5#1#9 + l#5#5#9 + l#5#6#9 + l#5#7#9 + l#5#9#9 <= 1
 c370: l#6#6#6 + l#6#7#6 + l#6#8#6 <= 1
 c371: l#6#6#7 + l#6#7#7 + l#6#8#7 <= 1
 c372: l#6#6#8 + l#6#7#8 + l#6#8#8 <= 1
 c373: l#7#0#0 + l#7#2#0 + l#7#3#0 + l#7#6#0 + l#7#8#0 <= 1
 c374: l#7#0#2 + l#7#2#2 + l#7#3#2 + l#7#6#2 + l#7#8#2 <= 1
 c375: l#7#0#3 + l#7#2#3 + l#7#3#3 + l#7#6#3 + l#7#8#3 <= 1
 c376: l#7#0#6 + l#7#2#6 + l#7#3#6 + l#7#6#6 + l#7#8#6 <= 1
 c377: l#7#0#8 + l#7#2#8 + l#7#3#8 + l#7#6#8 + l#7#8#8 <= 1
 c378: l#8#0#0 + l#8#1#0 + l#8#2#0 + l#8#6#0 + l#8#8#0 <= 1
 c379: l#8#0#1 + l#8#1#1 + l#8#2#1 + l#8#6#1 + l#8#8#1 <= 1
 c380: l#8#0#2 + l#8#1#2 + l#8#2#2 + l#8#6#2 + l#8#8#2 <= 1
 c381: l#8#0#6 + l#8#1#6 + l#8#2#6 + l#8#6#6 + l#8#8#6 <= 1
 c382: l#8#0#8 + l#8#1#8 + l#8#2#8 + l#8#6#8 + l#8#8#8 <= 1
 c383: l#9#0#0 + l#9#1#0 + l#9#2#0 + l#9#4#0 <= 1
 c384: l#9#0#1 + l#9#1#1 + l#9#2#1 + l#9#4#1 <= 1
 c385: l#9#0#2 + l#9#1#2 + l#9#2#2 + l#9#4#2 <= 1
 c386: l#9#0#4 + l#9#1#4 + l#9#2#4 + l#9#4#4 <= 1
 c387: l#0#0#0 + l#0#0#1 + l#0#0#2 + l#0#0#4 <= 1
 c388: l#0#1#0 + l#0#1#1 + l#0#1#2 + l#0#1#4 <= 1
 c389: l#0#2#0 + l#0#2#1 + l#0#2#2 + l#0#2#4 <= 1
 c390: l#0#4#0 + l#0#4#1 + l#0#4#2 + l#0#4#4 <= 1
 c391: l#1#1#1 + l#1#1#4 + l#1#1#8 <= 1
 c392: l#1#4#1 + l#1#4#4 + l#1#4#8 <= 1
 c393: l#1#8#1 + l#1#8#4 + l#1#8#8 <= 1
 c394: l#2#5#5 + l#2#5#8 + l#2#5#9 <= 1
 c395: l#2#8#5 + l#2#8#8 + l#2#8#9 <= 1
 c396: l#2#9#5 + l#2#9#8 + l#2#9#9 <= 1
 c397: l#3#0#0 + l#3#0#3 + l#3#0#9 <= 1
 c398: l#3#3#0 + l#3#3#3 + l#3#3#9 <= 1
 c399: l#3#9#0 + l#3#9#3 + l#3#9#9 <= 1
 c400: l#4#0#0 + l#4#0#3 + l#4#0#9 <= 1
 c401: l#4#3#0 + l#4#3#3 + l#4#3#9 <= 1
 c402: l#4#9#0 + l#4#9#3 + l#4#9#9 <= 1
 c403: l#5#1#1 + l#5#1#5 + l#5#1#6 + l#5#1#7 + l#5#1#9 <= 1
 c404: l#5#5#1 + l#5#5#5 + l#5#5#6 + l#5#5#7 + l#5#5#9 <= 1
 c405: l#5#6#1 + l#5#6#5 + l#5#6#6 + l#5#6#7 + l#5#6#9 <= 1
 c406: l#5#7#1 + l#5#7#5 + l#5#7#6 + l#5#7#7 + l#5#7#9 <= 1
 c407: l#5#9#1 + l#5#9#5 + l#5#9#6 + l#5#9#7 + l#5#9#9 <= 1
 c408: l#6#6#6 + l#6#6#7 + l#6#6#8 <= 1
 c409: l#6#7#6 + l#6#7#7 + l#6#7#8 <= 1
 c410: l#6#8#6 + l#6#8#7 + l#6#8#8 <= 1
 c411: l#7#0#0 + l#7#0#2 + l#7#0#3 + l#7#0#6 + l#7#0#8 <= 1
 c412: l#7#2#0 + l#7#2#2 + l#7#2#3 + l#7#2#6 + l#7#2#8 <= 1
 c413: l#7#3#0 + l#7#3#2 + l#7#3#3 + l#7#3#6 + l#7#3#8 <= 1
 c414: l#7#6#0 + l#7#6#2 + l#7#6#3 + l#7#6#6 + l#7#6#8 <= 1
 c415: l#7#8#0 + l#7#8#2 + l#7#8#3 + l#7#8#6 + l#7#8#8 <= 1
 c416: l#8#0#0 + l#8#0#1 + l#8#0#2 + l#8#0#6 + l#8#0#8 <= 1
 c417: l#8#1#0 + l#8#1#1 + l#8#1#2 + l#8#1#6 + l#8#1#8 <= 1
 c418: l#8#2#0 + l#8#2#1 + l#8#2#2 + l#8#2#6 + l#8#2#8 <= 1
 c419: l#8#6#0 + l#8#6#1 + l#8#6#2 + l#8#6#6 + l#8#6#8 <= 1
 c420: l#8#8#0 + l#8#8#1 + l#8#8#2 + l#8#8#6 + l#8#8#8 <= 1
 c421: l#9#0#0 + l#9#0#1 + l#9#0#2 + l#9#0#4 <= 1
 c422: l#9#1#0 + l#9#1#1 + l#9#1#2 + l#9#1#4 <= 1
 c423: l#9#2#0 + l#9#2#1 + l#9#2#2 + l#9#2#4 <= 1
 c424: l#9#4#0 + l#9#4#1 + l#9#4#2 + l#9#4#4 <= 1
Bounds
 0 <= l#0#0#0 <= 1
 0 <= l#0#0#1 <= 1
 0 <= l#0#0#2 <= 1
 0 <= l#0#0#4 <= 1
 0 <= l#0#1#0 <= 1
 0 <= l#0#1#1 <= 1
 0 <= l#0#1#2 <= 1
 0 <= l#0#1#4 <= 1
 0 <= l#0#2#0 <= 1
 0 <= l#0#2#1 <= 1
 0 <= l#0#2#2 <= 1
 0 <= l#0#2#4 <= 1
 0 <= l#0#4#0 <= 1
 0 <= l#0#4#1 <= 1
 0 <= l#0#4#2 <= 1
 0 <= l#0#4#4 <= 1
 0 <= l#1#1#1 <= 1
 0 <= l#1#1#4 <= 1
 0 <= l#1#1#8 <= 1
 0 <= l#1#4#1 <= 1
 0 <= l#1#4#4 <= 1
 0 <= l#1#4#8 <= 1
 0 <= l#1#8#1 <= 1
 0 <= l#1#8#4 <= 1
 0 <= l#1#8#8 <= 1
 0 <= l#2#5#5 <= 1
 0 <= l#2#5#8 <= 1
 0 <= l#2#5#9 <= 1
 0 <= l#2#8#5 <= 1
 0 <= l#2#8#8 <= 1
 0 <= l#2#8#9 <= 1
 0 <= l#2#9#5 <= 1
 0 <= l#2#9#8 <= 1
 0 <= l#2#9#9 <= 1
 0 <= l#3#0#0 <= 1
 0 <= l#3#0#3 <= 1
 0 <= l#3#0#9 <= 1
 0 <= l#3#3#0 <= 1
 0 <= l#3#3#3 <= 1
 0 <= l#3#3#9 <= 1
 0 <= l#3#9#0 <= 1
 0 <= l#3#9#3 <= 1
 0 <= l#3#9#9 <= 1
 0 <= l#4#0#0 <= 1
 0 <= l#4#0#3 <= 1
 0 <= l#4#0#9 <= 1
 0 <= l#4#3#0 <= 1
 0 <= l#4#3#3 <= 1
 0 <= l#4#3#9 <= 1
 0 <= l#4#9#0 <= 1
 0 <= l#4#9#3 <= 1
 0 <= l#4#9#9 <= 1
 0 <= l#5#1#1 <= 1
 0 <= l#5#1#5 <= 1
 0 <= l#5#1#6 <= 1
 0 <= l#5#1#7 <= 1
 0 <= l#5#1#9 <= 1
 0 <= l#5#5#1 <= 1
 0 <= l#5#5#5 <= 1
 0 <= l#5#5#6 <= 1
 0 <= l#5#5#7 <= 1
 0 <= l#5#5#9 <= 1
 0 <= l#5#6#1 <= 1
 0 <= l#5#6#5 <= 1
 0 <= l#5#6#6 <= 1
 0 <= l#5#6#7 <= 1
 0 <= l#5#6#9 <= 1
 0 <= l#5#7#1 <= 1
 0 <= l#5#7#5 <= 1
 0 <= l#5#7#6 <= 1
 0 <= l#5#7#7 <= 1
 0 <= l#5#7#9 <= 1
 0 <= l#5#9#1 <= 1
 0 <= l#5#9#5 <= 1
 0 <= l#5#9#6 <= 1
 0 <= l#5#9#7 <= 1
 0 <= l#5#9#9 <= 1
 0 <= l#6#6#6 <= 1
 0 <= l#6#6#7 <= 1
 0 <= l#6#6#8 <= 1
 0 <= l#6#7#6 <= 1
 0 <= l#6#7#7 <= 1
 0 <= l#6#7#8 <= 1
 0 <= l#6#8#6 <= 1
 0 <= l#6#8#7 <= 1
 0 <= l#6#8#8 <= 1
 0 <= l#7#0#0 <= 1
 0 <= l#7#0#2 <= 1
 0 <= l#7#0#3 <= 1
 0 <= l#7#0#6 <= 1
 0 <= l#7#0#8 <= 1
 0 <= l#7#2#0 <= 1
 0 <= l#7#2#2 <= 1
 0 <= l#7#2#3 <= 1
 0 <= l#7#2#6 <= 1
 0 <= l#7#2#8 <= 1
 0 <= l#7#3#0 <= 1
 0 <= l#7#3#2 <= 1
 0 <= l#7#3#3 <= 1
 0 <= l#7#3#6 <= 1
 0 <= l#7#3#8 <= 1
 0 <= l#7#6#0 <= 1
 0 <= l#7#6#2 <= 1
 0 <= l#7#6#3 <= 1
 0 <= l#7#6#6 <= 1
 0 <= l#7#6#8 <= 1
 0 <= l#7#8#0 <= 1
 0 <= l#7#8#2 <= 1
 0 <= l#7#8#3 <= 1
 0 <= l#7#8#6 <= 1
 0 <= l#7#8#8 <= 1
 0 <= l#8#0#0 <= 1
 0 <= l#8#0#1 <= 1
 0 <= l#8#0#2 <= 1
 0 <= l#8#0#6 <= 1
 0 <= l#8#0#8 <= 1
 0 <= l#8#1#0 <= 1
 0 <= l#8#1#1 <= 1
 0 <= l#8#1#2 <= 1
 0 <= l#8#1#6 <= 1
 0 <= l#8#1#8 <= 1
 0 <= l#8#2#0 <= 1
 0 <= l#8#2#1 <= 1
 0 <= l#8#2#2 <= 1
 0 <= l#8#2#6 <= 1
 0 <= l#8#2#8 <= 1
 0 <= l#8#6#0 <= 1
 0 <= l#8#6#1 <= 1
 0 <= l#8#6#2 <= 1
 0 <= l#8#6#6 <= 1
 0 <= l#8#6#8 <= 1
 0 <= l#8#8#0 <= 1
 0 <= l#8#8#1 <= 1
 0 <= l#8#8#2 <= 1
 0 <= l#8#8#6 <= 1
 0 <= l#8#8#8 <= 1
 0 <= l#9#0#0 <= 1
 0 <= l#9#0#1 <= 1
 0 <= l#9#0#2 <= 1
 0 <= l#9#0#4 <= 1
 0 <= l#9#1#0 <= 1
 0 <= l#9#1#1 <= 1
 0 <= l#9#1#2 <= 1
 0 <= l#9#1#4 <= 1
 0 <= l#9#2#0 <= 1
 0 <= l#9#2#1 <= 1
 0 <= l#9#2#2 <= 1
 0 <= l#9#2#4 <= 1
 0 <= l#9#4#0 <= 1
 0 <= l#9#4#1 <= 1
 0 <= l#9#4#2 <= 1
 0 <= l#9#4#4 <= 1
Binaries
 l#0#0#0  l#0#0#1  l#0#0#2  l#0#0#4  l#0#1#0  l#0#1#1  l#0#1#2  l#0#1#4 
 l#0#2#0  l#0#2#1  l#0#2#2  l#0#2#4  l#0#4#0  l#0#4#1  l#0#4#2  l#0#4#4 
 l#1#1#1  l#1#1#4  l#1#1#8  l#1#4#1  l#1#4#4  l#1#4#8  l#1#8#1  l#1#8#4 
 l#1#8#8  l#2#5#5  l#2#5#8  l#2#5#9  l#2#8#5  l#2#8#8  l#2#8#9  l#2#9#5 
 l#2#9#8  l#2#9#9  l#3#0#0  l#3#0#3  l#3#0#9  l#3#3#0  l#3#3#3  l#3#3#9 
 l#3#9#0  l#3#9#3  l#3#9#9  l#4#0#0  l#4#0#3  l#4#0#9  l#4#3#0  l#4#3#3 
 l#4#3#9  l#4#9#0  l#4#9#3  l#4#9#9  l#5#1#1  l#5#1#5  l#5#1#6  l#5#1#7 
 l#5#1#9  l#5#5#1  l#5#5#5  l#5#5#6  l#5#5#7  l#5#5#9  l#5#6#1  l#5#6#5 
 l#5#6#6  l#5#6#7  l#5#6#9  l#5#7#1  l#5#7#5  l#5#7#6  l#5#7#7  l#5#7#9 
 l#5#9#1  l#5#9#5  l#5#9#6  l#5#9#7  l#5#9#9  l#6#6#6  l#6#6#7  l#6#6#8 
 l#6#7#6  l#6#7#7  l#6#7#8  l#6#8#6  l#6#8#7  l#6#8#8  l#7#0#0  l#7#0#2 
 l#7#0#3  l#7#0#6  l#7#0#8  l#7#2#0  l#7#2#2  l#7#2#3  l#7#2#6  l#7#2#8 
 l#7#3#0  l#7#3#2  l#7#3#3  l#7#3#6  l#7#3#8  l#7#6#0  l#7#6#2  l#7#6#3 
 l#7#6#6  l#7#6#8  l#7#8#0  l#7#8#2  l#7#8#3  l#7#8#6  l#7#8#8  l#8#0#0 
 l#8#0#1  l#8#0#2  l#8#0#6  l#8#0#8  l#8#1#0  l#8#1#1  l#8#1#2  l#8#1#6 
 l#8#1#8  l#8#2#0  l#8#2#1  l#8#2#2  l#8#2#6  l#8#2#8  l#8#6#0  l#8#6#1 
 l#8#6#2  l#8#6#6  l#8#6#8  l#8#8#0  l#8#8#1  l#8#8#2  l#8#8#6  l#8#8#8 
 l#9#0#0  l#9#0#1  l#9#0#2  l#9#0#4  l#9#1#0  l#9#1#1  l#9#1#2  l#9#1#4 
 l#9#2#0  l#9#2#1  l#9#2#2  l#9#2#4  l#9#4#0  l#9#4#1  l#9#4#2  l#9#4#4 
End
